155
0 15 76 37 150 78 77 114 123 140 
139 81 138 93 63 116 70 75 4 60 
61 48 100 69 43 90 17 52 88 1 
35 30 94 136 132 91 24 3 57 31 
14 102 101 89 97 45 27 26 28 79 
12 32 11 66 137 143 10 71 18 141 
2 68 147 85 145 25 106 153 107 34 
73 126 40 142 56 5 42 9 8 118 
104 7 134 130 99 135 29 53 121 83 
84 122 125 33 20 51 64 146 55 113 
152 96 47 19 109 127 149 22 87 80 
50 23 115 119 110 13 124 103 154 54 
148 133 74 49 67 144 21 151 105 129 
82 44 65 39 41 36 16 112 120 92 
131 111 86 98 72 62 58 46 38 117 
6 128 108 95 59 
